100
32
32
32
20
16
31
18
13
5
9
26
9
13
17
12
11
2
32
13
28
19
30
5
5
21
7
30
26
32
29
9
18
20
2
9
26
21
3
22
1
27
4
32
24
8
2
6
15
25
20
17
28
9
24
30
19
20
18
13
23
13
20
30
12
17
31
14
11
20
7
5
25
3
17
13
4
20
20
25
6
2
5
30
20
2
28
22
31
9
6
31
2
8
20
26
28
19
12
2
25
32